c This is a random SAT instance with 10 variables and 20 clauses
p cnf 10 20
-6 6 -2 -1 7 4 10 0
-5 5 2 -2 -4 0
-6 -1 10 -10 -7 3 7 5 0
4 8 0
8 -2 9 2 -10 1 -7 0
-9 3 -6 -4 5 7 -7 9 1 0
-4 -10 7 0
7 10 -3 -5 -8 3 1 -2 2 0
9 -4 0
-9 -6 -4 -1 0
-7 8 -8 -6 0
4 -10 -7 -9 -1 10 8 0
-2 10 0
10 -7 0
10 8 2 -9 7 0
-1 0
2 -3 5 -6 10 -10 0
-6 -4 -2 -10 4 1 0
6 -1 10 -2 8 -7 3 0
6 -4 -2 -6 7 -10 2 9 0